sat
(
  (define-fun PriceProv2 () Int
    480)
  (define-fun PriceProv3 () Int
    0)
  (define-fun C1_VM3 () Int
    0)
  (define-fun MemProv4 () Int
    6750)
  (define-fun PriceProv4 () Int
    480)
  (define-fun C3_VM1 () Int
    0)
  (define-fun C4_VM4 () Int
    1)
  (define-fun StorageProv5 () Int
    141000)
  (define-fun StorageProv4 () Int
    141000)
  (define-fun MemProv2 () Int
    6750)
  (define-fun C5_VM5 () Int
    0)
  (define-fun C3_VM5 () Int
    1)
  (define-fun StorageProv2 () Int
    141000)
  (define-fun C4_VM1 () Int
    0)
  (define-fun C2_VM4 () Int
    1)
  (define-fun C4_VM2 () Int
    0)
  (define-fun C1_VM5 () Int
    0)
  (define-fun ProcProv2 () Int
    3600)
  (define-fun StorageProv1 () Int
    69000)
  (define-fun StorageProv3 () Int
    141001)
  (define-fun C1_VM4 () Int
    0)
  (define-fun C4_VM5 () Int
    1)
  (define-fun VM4Type () Int
    10)
  (define-fun MemProv3 () Int
    6751)
  (define-fun ProcProv3 () Int
    3599)
  (define-fun ProcProv5 () Int
    3600)
  (define-fun VM3Type () Int
    0)
  (define-fun C3_VM3 () Int
    0)
  (define-fun PriceProv5 () Int
    480)
  (define-fun C5_VM2 () Int
    0)
  (define-fun MemProv5 () Int
    6750)
  (define-fun C1_VM2 () Int
    1)
  (define-fun C2_VM5 () Int
    1)
  (define-fun PriceProv1 () Int
    240)
  (define-fun VM1Type () Int
    7)
  (define-fun C2_VM2 () Int
    0)
  (define-fun VM2Type () Int
    10)
  (define-fun C3_VM2 () Int
    0)
  (define-fun C5_VM4 () Int
    0)
  (define-fun MemProv1 () Int
    3150)
  (define-fun C2_VM1 () Int
    0)
  (define-fun ProcProv4 () Int
    3600)
  (define-fun C3_VM4 () Int
    1)
  (define-fun ProcProv1 () Int
    1800)
  (define-fun C5_VM3 () Int
    0)
  (define-fun C2_VM3 () Int
    0)
  (define-fun VM5Type () Int
    10)
  (define-fun C4_VM3 () Int
    0)
  (define-fun C5_VM1 () Int
    1)
  (define-fun C1_VM1 () Int
    0)
)
(objectives
 ( 9)
 ((+ 0 PriceProv1 PriceProv2 PriceProv3 PriceProv4 PriceProv5) 1680)
)
(:added-eqs                   36299
 :arith-eq-adapter            10481
 :arith-bound-propagations-lp 173
 :arith-conflicts             52
 :arith-diseq                 33567
 :arith-fixed-eqs             426
 :arith-lower                 44701
 :arith-make-feasible         8836
 :arith-max-columns           107
 :arith-max-rows              17
 :arith-upper                 34432
 :binary-propagations         172238
 :conflicts                   1122
 :decisions                   26652
 :del-clause                  10718
 :final-checks                25
 :max-memory                  40.42
 :maxsat-cores                5
 :memory                      40.42
 :minimized-lits              7005
 :mk-bool-var                 21126
 :mk-clause                   11429
 :mk-clause-binary            2248
 :num-allocs                  5724404
 :num-checks                  41
 :pb-conflicts                687
 :pb-predicates               254
 :pb-propagations             686
 :pb-resolves                 685
 :propagations                237287
 :restarts                    7
 :rlimit-count                1931860
 :solve-eqs-elim-vars         2
 :solve-eqs-steps             16
 :time                        0.10
 :total-time                  0.10)
